c description: Random 3-CNF over 25 variables and 107 clauses
c generator: CNFgen (0.9.2)
c copyright: (C) 2012-2022 Massimo Lauria <massimo.lauria@uniroma1.it>
c url: https://massimolauria.net/cnfgen
c command line: cnfgen --output ../CNF/25_bit_107_43.cnf randkcnf 3 25 107
c
p cnf 25 107
13 -18 19 0
-1 3 21 0
15 -17 -21 0
-9 16 -25 0
14 -23 -24 0
-2 -13 -22 0
12 14 25 0
4 -6 18 0
-5 -6 23 0
-13 20 22 0
-1 -6 14 0
-5 10 11 0
-2 16 -17 0
-13 -15 19 0
8 20 -22 0
-13 21 -24 0
-13 -16 22 0
1 8 -10 0
3 10 -21 0
-2 13 -23 0
11 14 -23 0
4 14 21 0
-3 4 25 0
6 -10 24 0
4 -19 24 0
1 6 -16 0
11 14 -22 0
1 4 22 0
-13 -21 -25 0
-3 -11 16 0
2 -12 -22 0
3 18 -22 0
12 18 -19 0
3 -9 -25 0
14 -21 25 0
3 22 23 0
9 -20 24 0
3 -4 23 0
20 24 25 0
-3 -7 -8 0
-3 -6 -15 0
7 8 -11 0
-15 16 -19 0
1 -2 -17 0
-1 6 22 0
6 8 -14 0
13 -18 -24 0
4 -14 16 0
-18 20 -21 0
-2 -18 -21 0
3 -11 -23 0
3 -10 13 0
11 12 -16 0
-13 18 20 0
4 9 -19 0
5 12 22 0
-7 16 25 0
-4 6 -15 0
11 -12 19 0
-13 -14 22 0
5 19 24 0
11 13 -25 0
-6 14 -25 0
-7 13 -16 0
4 17 22 0
8 11 14 0
6 9 20 0
-9 15 21 0
15 19 25 0
-15 18 -24 0
-5 -15 -24 0
1 -24 -25 0
-14 -23 -25 0
-3 11 -25 0
-16 21 -22 0
-1 -6 -21 0
8 11 -15 0
20 22 -24 0
-10 -22 23 0
13 -16 18 0
-12 -18 20 0
8 -22 -25 0
-1 -4 -22 0
2 13 -15 0
3 5 11 0
15 16 -21 0
11 -18 -21 0
16 17 -24 0
3 -16 24 0
-2 5 7 0
6 7 -24 0
-12 13 21 0
-3 -15 -23 0
-6 10 -21 0
5 7 -8 0
-12 17 -21 0
8 11 24 0
4 6 24 0
-7 11 -20 0
2 -7 8 0
4 -9 -24 0
7 -18 22 0
-4 8 14 0
-3 -15 22 0
1 -7 17 0
3 -14 17 0
-4 -7 9 0
